files/content/example.machine
machine Example{
     abstract start state S0{}
     abstract state S1{}
     abstract state S2{}
    
    transition t1 {S0->S0}
    transition t2 {S0->S1}
    transition t3 {S1->S0}

    goal{
        enumerate for 5 reach (S1)
    }

}